W=4;
H=5;

MAX_TIME=12;
MAX_TRACKS=7;

TARGET=(5,4);

TRAINS=[(1,3,LEFT),(1,2,LEFT)];
DECOYS=[];

INIT_POS=[
(1,2,STRAIGHT_RL),
(1,3,STRAIGHT_RL),
(2,1,ESWITCH_D_T_R),
(3,1,STRAIGHT_TD),
(3,3,STRAIGHT_TD),
(4,1,ESWITCH_D_T_R),
(5,3,STRAIGHT_RL),
(5,4,STRAIGHT_RL),
];
TUNNEL_PAIRS=[];

GATES=[
(5,3,1,false),
];
ACTIVATIONS=[
(3,3,1),
];

DSWITCHES=[];
STATIONS=[];

SEMAPHORE_SUPPLY=0;
